699957
177,198,225,68,22,158,207,2,184,188,15,59,137,14,7,119,109,13,64,153,163,173,28,75,56,94,78,166,83,192,194,118,113,197,199,9,200,190,151,121,176,50,97,41,159,112,72,208,125,69,85,217,205,135,180,187,84,123,172,130,147,181,60,122,24,79,131,148,114,1,81,157,76,221,127,140,23,65,215,99,52,91,17,55,53,174,104,201,98,189,218,105,40,120,179,186,102,223,128,145,11,87,108,89,185,170,149,169,141,227,3,20,216,152,32,37,202,5,103,229,211,44,203,171,167,92,212,51,220,58,57,138,10,142,196,213,45,124,226,164,193,96,29,136,63,219,12,133,18,110,47,224,46,16,175,222,43,4,155,144,210,67,8,165,100,183,115,95,90,143,25,21,88,191,178,195,106,160,74,204,36,33,214,77,27,150,49,107,93,34,86,61,101,54,129,80,39,26,168,111,154,132,228,35,182,19,116,209,6,0,71,62,31,117,48,70,139,161,134,82,156,73,38,66,162,126,146,206,42,30
